TYPE : Vertex Cover
DIMENSION: 28
EDGE_DATA_SECTION:
0 7
0 9
0 10
0 12
0 15
0 18
0 20
0 27
1 6
1 9
1 11
1 12
1 15
1 16
1 19
1 26
2 9
2 15
2 18
2 21
3 6
3 8
3 13
3 14
3 18
4 6
4 8
4 9
4 13
4 19
4 23
5 7
5 11
5 16
5 17
6 9
6 10
6 14
6 16
6 17
6 18
6 19
6 26
7 11
7 12
7 18
8 16
8 23
9 13
9 14
9 18
9 20
9 24
9 27
10 18
10 19
10 24
10 26
10 27
11 12
11 15
11 19
11 20
11 26
12 13
12 16
12 19
13 14
13 19
13 22
14 16
14 18
14 25
15 20
15 21
15 24
15 26
15 27
16 21
16 24
16 25
16 27
17 22
17 24
17 26
18 19
18 23
18 27
19 21
19 24
19 25
19 26
20 22
20 23
20 25
20 26
20 27
21 24
21 25
21 27
22 23
23 24
-1
VERTEX_DEGREE:
8.0 8.0 4.0 5.0 6.0 4.0 11.0 5.0 4.0 11.0 7.0 8.0 7.0 7.0 7.0 9.0 10.0 5.0 11.0 12.0 9.0 7.0 4.0 6.0 8.0 5.0 8.0 8.0
VERTEX_COVER:
0 1 6 7 8 9 10 11 13 14 15 16 17 18 19 20 21 23
EOF
